n_boats=80;
n_periods=20;
capacity=[25,3,16,45,38,53,44,47,8,4,25,19,23,16,55,9,35,44,44,12,41,40,18,3,12,33,5,57,26,29,57,14,53,55,18,19,6,32,15,45,2,37,2,39,11,56,43,51,55,37,29,20,40,45,20,7,47,2,35,44,23,2,27,9,45,57,49,42,47,1,30,45,17,14,13,15,44,37,9,4];
crew=[8,3,7,12,16,14,25,19,2,3,8,9,15,1,52,6,5,23,28,2,16,21,5,2,6,1,2,12,24,18,30,3,40,15,16,8,2,27,2,39,2,21,2,17,9,11,17,23,7,29,22,4,20,28,12,4,38,2,34,31,17,1,16,3,34,32,39,17,9,1,30,21,9,11,12,10,15,32,2,3];
